Problem:    ReteLogistica
Rows:       9
Columns:    10
Non-zeros:  30
Status:     OPTIMAL
Objective:  z = 5870250 (MINimum)

   No.   Row name   St   Activity     Lower bound   Upper bound    Marginal
------ ------------ -- ------------- ------------- ------------- -------------
     1 capacity[Bristol]
                    B          42500                      150000 
     2 capacity[Middlesborough]
                    B          30000                      150000 
     3 Flow[Bristol]
                    NS             0            -0             =        -6.125 
     4 Flow[Middlesborough]
                    NS             0            -0             =          -6.5 
     5 dom[Londra]  NS         90000         90000             =        20.725 
     6 dom[Birmingham]
                    NS         80000         80000             =        18.125 
     7 dom[Leeds]   NS         50000         50000             =          16.5 
     8 dom[Edimburgo]
                    NS         70000         70000             =          22.8 
     9 z            B   5.73625e+006                             

   No. Column name  St   Activity     Lower bound   Upper bound    Marginal
------ ------------ -- ------------- ------------- ------------- -------------
     1 x[Bristol,Londra]
                    B          90000             0               
     2 x[Bristol,Birmingham]
                    B          80000             0               
     3 x[Bristol,Leeds]
                    NL             0             0                       9.825 
     4 x[Bristol,Edimburgo]
                    NL             0             0                      16.825 
     5 x[Middlesborough,Londra]
                    NL             0             0                      10.275 
     6 x[Middlesborough,Birmingham]
                    NL             0             0                       6.675 
     7 x[Middlesborough,Leeds]
                    B          50000             0               
     8 x[Middlesborough,Edimburgo]
                    B          70000             0               
     9 y[Bristol]   B          42500             0               
    10 y[Middlesborough]
                    B          30000             0               

Karush-Kuhn-Tucker optimality conditions:

KKT.PE: max.abs.err = 0.00e+000 on row 0
        max.rel.err = 0.00e+000 on row 0
        High quality

KKT.PB: max.abs.err = 0.00e+000 on row 0
        max.rel.err = 0.00e+000 on row 0
        High quality

KKT.DE: max.abs.err = 3.55e-015 on column 8
        max.rel.err = 7.62e-017 on column 8
        High quality

KKT.DB: max.abs.err = 0.00e+000 on row 0
        max.rel.err = 0.00e+000 on row 0
        High quality

End of output
